Optimal - objective value 38.00000000
      0 Cmax      38.0000000000001                       0
      1 C_0       7.00000000000003                       0
      2 C_1       38.0000000000001                       0
      3 C_2                    20                       0
      4 C_3       5.00000000000002                       0
      5 C_4       38.0000000000001                       0
      6 C_5                    12                       0
      7 C_6       25.0000000000001                       0
      8 C_7       38.0000000000001                       0
     10 x_0_1                   1                     640
     13 x_1_1                   1                     320
     17 x_2_2                   1                       0
     20 x_3_2                   1                       0
     23 x_4_2                   1                       0
     24 x_5_0                   1                       0
     28 x_6_1                   1                     640
     30 x_7_0                   1                       0
     34 d_0_1_1                 1                       0
     35 d_0_1_2                 1                       0
     37 d_0_2_1                 1                       0
     40 d_0_3_1                 1                       0
     41 d_0_3_2                 1                       0
     43 d_0_4_1                 1                       0
     44 d_0_4_2                 1                       0
     46 d_0_5_1                 1                       0
     47 d_0_5_2                 1                       0
     49 d_0_6_1                 1                     320
     50 d_0_6_2                 1                       0
     52 d_0_7_1                 1                       0
     55 d_1_2_1                 1                       0
     61 d_1_4_1                 1                       0
     62 d_1_4_2                 1                       0
     63 d_1_5_0                 1                       0
     64 d_1_5_1                 1                       0
     65 d_1_5_2                 1                       0
     66 d_1_6_0                 1                       0
     71 d_1_7_2                 1                       0
     76 d_2_4_1                 1                       0
     77 d_2_4_2                 1                       0
     80 d_2_5_2                 1                       0
     82 d_2_6_1                 1                       0
     83 d_2_6_2                 1                       0
     86 d_2_7_2                 1                       0
     88 d_3_4_1                 1                       0
     89 d_3_4_2                 1                       0
     90 d_3_5_0                 1                       0
     92 d_3_5_2                 1                       0
     95 d_3_6_2                 1                       0
     98 d_3_7_2                 1                       0
     99 d_4_5_0                 1                       0
    100 d_4_5_1                 1                       0
    106 d_4_7_1                 1                       0
    107 d_4_7_2                 1                       0
    108 d_5_6_0                 1                       0
    110 d_5_6_2                 1                       0
    111 d_5_7_0                 1                       0
    113 d_5_7_2                 1                       0
    114 d_6_7_0                 1                       0
    115 d_6_7_1                 1                       0
    116 d_6_7_2                 1                       0
